<instance format="XCSP3" type="CSP">
  <variables>
    <var id="x0"> 9 11 15 </var>
    <var id="x1"> 10..12 16 </var>
    <var id="x2"> 3 11 15 16 </var>
    <var id="x3"> 6 12 15 16 </var>
    <var id="x4"> 3 10 12 15 16 </var>
    <var id="x5"> 3 9 10 12 </var>
    <var id="x6"> 3 6 10 </var>
    <var id="x7"> 6 9 12 </var>
    <var id="x8"> 7 15 </var>
    <var id="x9"> 7 10 16 </var>
    <var id="x10"> 7 8 15 16 </var>
    <var id="x11"> 5 7 15..17 </var>
    <var id="x12"> 8 10 13 15 16 </var>
    <var id="x13"> 13 15..17 </var>
    <var id="x14"> 5 8 10 13 </var>
    <var id="x15"> 5 7 17 </var>
    <var id="x16"> 1 5 7 16 </var>
    <var id="x17"> 2 7 11 </var>
    <var id="x18"> 1 7 11 14 16 </var>
    <var id="x19"> 5 7 11 14 </var>
    <var id="x20"> 7 11 16 </var>
    <var id="x21"> 5 7 14 </var>
    <var id="x22"> 1 7 11 </var>
    <var id="x23"> 2..4 7 9 </var>
    <var id="x24"> 2 9 13 </var>
    <var id="x25"> 0 7 9 </var>
    <var id="x26"> 2 3 13 </var>
    <var id="x27"> 0 3 7 9 13 </var>
    <var id="x28"> 0 6 13 </var>
    <var id="x29"> 2 6 7 9 </var>
    <var id="x30"> 0 3 6 </var>
    <var id="x31"> 5 13 16 </var>
    <var id="x32"> 9 15 </var>
    <var id="x33"> 10 14 16 </var>
    <var id="x34"> 5 9 10 14 15 </var>
    <var id="x35"> 5 6 9 14 </var>
    <var id="x36"> 9 10 13 </var>
    <var id="x37"> 5 10 14..16 </var>
    <var id="x38"> 10 13..16 </var>
    <var id="x39"> 1 8 11 15 </var>
    <var id="x40"> 0 4 8 11 15 </var>
    <var id="x41"> 5 </var>
    <var id="x42"> 1 11 15 </var>
    <var id="x43"> 4 5 8 </var>
    <var id="x44"> 0 1 5 8 11 </var>
    <var id="x45"> 5 12 </var>
    <var id="x46"> 4 11 15 </var>
    <var id="x47"> 0 1 7 12 </var>
    <var id="x48"> 0 1 7 10..12 </var>
    <var id="x49"> 4 6 7 12 </var>
    <var id="x50"> 4 11 12 </var>
    <var id="x51"> 1 6 7 10 11 </var>
    <var id="x52"> 0 1 6 10 11 </var>
    <var id="x53"> 4 10 11 </var>
    <var id="x54"> 0 6 10 </var>
    <var id="x55"> 1 3 7 13 </var>
    <var id="x56"> 2 3 7 15 </var>
    <var id="x57"> 1 2 13 15 17 </var>
    <var id="x58"> 7 10 15 </var>
    <var id="x59"> 3 7 17 </var>
    <var id="x60"> 2 3 10 13 15 </var>
    <var id="x61"> 1 7 10 15 </var>
    <var id="x62"> 2 3 10 15 </var>
    <var id="x63"> 3 7 16 </var>
    <var id="x64"> 3 4 7 8 16 </var>
    <var id="x65"> 3 7 9 14 </var>
    <var id="x66"> 3 8 10 16 </var>
    <var id="x67"> 3 4 16 </var>
    <var id="x68"> 8 10 </var>
    <var id="x69"> 7 9 14 </var>
    <var id="x70"> 4 10 14 16 </var>
    <var id="x71"> 0 3 5 7 13 </var>
    <var id="x72"> 11 13 15 17 </var>
    <var id="x73"> 0 7 11 </var>
    <var id="x74"> 5 7 15 17 </var>
    <var id="x75"> 3 11 13 15 17 </var>
    <var id="x76"> 3 5 13 </var>
    <var id="x77"> 3 5 15 </var>
    <var id="x78"> 0 3 5 15 17 </var>
    <var id="x79"> 1 3 7 13 </var>
    <var id="x80"> 7 14 15 </var>
    <var id="x81"> 3 4 7 15 </var>
    <var id="x82"> 4 7 15 </var>
    <var id="x83"> 3 7 13 </var>
    <var id="x84"> 2..4 14 15 </var>
    <var id="x85"> 1 13 </var>
    <var id="x86"> 2 4 13..15 </var>
    <var id="x87"> 7 10..12 </var>
    <var id="x88"> 7 10 11 </var>
    <var id="x89"> 4 6 7 12 17 </var>
    <var id="x90"> 4 11..13 17 </var>
    <var id="x91"> 6 7 10 11 </var>
    <var id="x92"> 4 10 </var>
    <var id="x93"> 6 7 12 17 </var>
    <var id="x94"> 4 10 11 13 </var>
    <var id="x95"> 3 4 12 </var>
    <var id="x96"> 3 4 </var>
    <var id="x97"> 3 5 14 17 </var>
    <var id="x98"> 3 10 12 17 </var>
    <var id="x99"> 3..5 10 </var>
    <var id="x100"> 4 10 14 </var>
    <var id="x101"> 3 5 10 14 17 </var>
    <var id="x102"> 5 12 </var>
    <var id="x103"> 2 3 10 12 </var>
    <var id="x104"> 3 11 12 </var>
    <var id="x105"> 0 3 9 10 12 </var>
    <var id="x106"> 9..11 </var>
    <var id="x107"> 2 3 5 10 </var>
    <var id="x108"> 0 5 10 11 </var>
    <var id="x109"> 2 5 9 12 </var>
    <var id="x110"> 2 8 9 15 </var>
    <var as="x34" id="x111"/>
    <var id="x112"> 2 8 10 15 16 </var>
    <var id="x113"> 15 16 </var>
    <var id="x114"> 9 10 </var>
    <var id="x115"> 5 8 10 </var>
    <var id="x116"> 2 5 9 14 </var>
    <var id="x117"> 5 10 14 15 </var>
    <var id="x118"> 0 3 5 12 16 </var>
    <var id="x119"> 3 11 12 15 </var>
    <var id="x120"> 11 15 </var>
    <var id="x121"> 0 11 12 16 </var>
    <var id="x122"> 5 6 12 15 16 </var>
    <var id="x123"> 3 5 15 16 </var>
    <var id="x124"> 0 5 6 11 </var>
    <var id="x125"> 0 3 5 6 15 </var>
    <var id="x126"> 7 15 16 </var>
    <var id="x127"> 6 7 14 17 </var>
    <var id="x128"> 12 15 16 </var>
    <var id="x129"> 6 </var>
    <var id="x130"> 14..16 </var>
    <var id="x131"> 14..16 </var>
    <var id="x132"> 6 14 15 17 </var>
    <var id="x133"> 3 9 11 15 </var>
    <var id="x134"> 8 9 11 13 15 17 </var>
    <var id="x135"> 0 9 11 15 </var>
    <var as="x75" id="x136"/>
    <var id="x137"> 0 3 9 13 17 </var>
    <var id="x138"> 9 11 15 </var>
    <var id="x139"> 0 8 11 13 </var>
    <var id="x140"> 0 3 15 17 </var>
  </variables>
  <constraints>
    <group>
      <allDifferent> %... </allDifferent>
      <args> x0 x1 x2 x3 x4 x5 x6 x7 </args>
      <args> x8 x9 x10 x11 x12 x13 x14 x15 </args>
      <args> x16 x17 x18 x19 x20 x21 x22 </args>
      <args> x23 x24 x25 x26 x27 x28 x29 x30 </args>
      <args> x31 x32 x33 x34 x35 x36 x37 x38 </args>
      <args> x39 x40 x41 x42 x43 x44 x45 x46 </args>
      <args> x47 x48 x49 x50 x51 x52 x53 x54 </args>
      <args> x55 x56 x57 x58 x59 x60 x61 x62 </args>
      <args> x63 x64 x65 x66 x67 x68 x69 x70 </args>
      <args> x71 x72 x73 x74 x75 x76 x77 x78 </args>
      <args> x79 x80 x81 x82 x83 x84 x85 x86 </args>
      <args> x87 x88 x89 x90 x91 x92 x93 x94 </args>
      <args> x95 x96 x97 x98 x99 x100 x101 </args>
      <args> x102 x103 x104 x105 x106 x107 x108 x109 </args>
      <args> x110 x111 x112 x113 x114 x115 x116 x117 </args>
      <args> x118 x119 x120 x121 x122 x123 x124 x125 </args>
      <args> x126 x127 x128 x129 x130 x131 x132 </args>
      <args> x133 x134 x135 x136 x137 x138 x139 x140 </args>
      <args> x16 x31 x47 x55 x63 x71 x79 x118 </args>
      <args> x8 x17 x23 x32 x56 x95 x119 x133 </args>
      <args> x0 x24 x39 x57 x72 x110 x120 x134 </args>
      <args> x1 x9 x18 x33 x48 x73 x87 x121 </args>
      <args> x19 x25 x34 x58 x80 x88 x111 x135 </args>
      <args> x2 x10 x20 x40 x64 x81 x96 x126 </args>
      <args> x21 x35 x41 x59 x65 x97 x127 </args>
      <args> x3 x11 x49 x74 x82 x89 x102 x122 </args>
      <args> x4 x12 x26 x60 x66 x103 x112 x128 </args>
      <args> x13 x50 x67 x75 x90 x104 x113 x136 </args>
      <args> x5 x27 x36 x83 x98 x105 x114 x137 </args>
      <args> x22 x42 x51 x61 x91 x106 x138 </args>
      <args> x6 x14 x43 x76 x99 x115 x129 </args>
      <args> x37 x62 x77 x84 x92 x107 x123 x130 </args>
      <args> x28 x44 x52 x68 x85 x108 x124 x139 </args>
      <args> x7 x15 x29 x45 x69 x93 x109 x116 </args>
      <args> x38 x46 x53 x70 x86 x94 x100 x131 </args>
      <args> x30 x54 x78 x101 x117 x125 x132 x140 </args>
    </group>
  </constraints>
</instance>

